60
1 0 8
2 0 10
2 1 10
3 2 5
5 1 9
5 2 10
6 0 13
6 2 8
7 0 6
7 1 9
7 2 2
7 3 10
7 4 5
7 6 5
8 2 2
8 4 4
8 5 4
8 7 8
9 0 4
9 1 9
9 2 2
9 3 8
9 5 12
9 7 5
10 1 9
10 4 4
10 5 6
10 9 9
11 4 3
11 5 13
11 6 2
11 7 9
11 8 10
11 9 6
11 10 5
12 1 3
12 2 2
12 4 9
12 7 2
12 8 10
12 9 4
12 10 4
13 3 2
13 5 11
13 7 1
13 9 11
13 10 5
13 11 7
14 0 11
14 2 6
14 6 8
14 9 5
14 11 1
14 12 13
14 13 13
15 4 9
15 6 7
15 7 4
15 8 3
15 11 13
16 0 5
16 1 10
16 4 3
16 5 12
16 6 10
16 11 5
16 12 6
16 15 2
17 0 1
17 1 13
17 3 4
17 6 11
17 7 6
17 8 10
17 9 5
17 12 3
17 14 12
17 16 10
18 0 2
18 1 11
18 4 6
18 7 11
18 8 12
18 9 2
18 12 14
18 13 5
18 14 9
18 15 5
18 17 11
19 0 14
19 1 1
19 2 13
19 3 13
19 7 12
19 9 13
19 10 6
19 14 8
19 15 1
19 17 12
19 18 13
20 0 1
20 1 2
20 4 13
20 5 2
20 6 1
20 9 2
20 10 7
20 11 10
20 15 2
20 17 3
21 0 1
21 1 4
21 2 13
21 4 11
21 5 5
21 6 1
21 7 12
21 8 4
21 12 6
21 13 11
21 15 4
21 16 6
21 18 13
21 20 4
22 2 2
22 3 2
22 5 6
22 6 2
22 10 10
22 11 10
22 12 13
22 14 14
22 16 11
22 17 14
22 19 11
22 20 4
23 2 6
23 3 5
23 5 4
23 7 12
23 9 9
23 10 9
23 11 13
23 12 6
23 13 4
23 14 2
23 16 14
23 18 6
23 19 1
23 20 14
24 0 6
24 1 4
24 2 10
24 3 11
24 4 9
24 5 10
24 10 5
24 12 1
24 14 1
24 15 11
24 16 11
24 17 11
24 19 10
24 20 2
25 1 1
25 4 6
25 9 5
25 10 1
25 12 11
25 16 3
26 1 7
26 3 12
26 5 13
26 6 11
26 7 9
26 9 12
26 10 1
26 11 8
26 13 8
26 15 7
26 16 8
26 17 9
26 19 1
26 21 6
26 22 2
26 23 12
26 24 7
26 25 8
27 2 1
27 6 8
27 9 13
27 13 2
27 14 6
27 16 9
27 17 8
27 19 1
27 20 8
27 21 14
27 22 9
27 24 14
28 1 2
28 2 9
28 4 3
28 7 4
28 8 3
28 9 9
28 10 9
28 11 7
28 12 2
28 15 3
28 18 11
28 20 14
28 21 11
28 25 12
28 27 14
29 1 1
29 2 1
29 3 4
29 4 12
29 9 1
29 10 1
29 14 8
29 15 4
29 16 2
29 17 4
29 20 5
29 21 2
29 23 7
29 24 2
29 25 1
29 28 14
30 0 2
30 2 13
30 4 13
30 10 11
30 12 7
30 14 4
30 16 11
30 18 11
30 19 14
30 20 8
30 21 2
30 22 10
30 26 4
30 28 3
30 29 5
31 0 3
31 1 14
31 3 3
31 6 9
31 12 8
31 13 10
31 14 1
31 15 12
31 17 11
31 18 5
31 21 3
31 22 14
31 23 10
31 25 8
31 28 2
31 30 1
32 0 9
32 4 3
32 5 3
32 7 4
32 8 2
32 11 9
32 13 9
32 14 6
32 16 3
32 19 8
32 23 13
32 25 14
32 27 7
32 28 12
32 30 5
32 31 4
33 1 12
33 2 7
33 3 8
33 11 9
33 13 2
33 14 3
33 15 3
33 20 6
33 21 10
33 22 6
33 23 5
33 26 12
33 28 11
33 31 13
33 32 2
34 0 3
34 1 9
34 3 6
34 4 10
34 6 5
34 9 12
34 10 12
34 13 11
34 14 9
34 16 14
34 18 1
34 20 9
34 23 8
34 24 8
34 25 4
34 27 14
34 28 8
34 32 4
34 33 4
35 0 3
35 1 5
35 2 14
35 4 7
35 5 8
35 7 10
35 8 7
35 9 5
35 10 10
35 14 1
35 18 2
35 23 8
35 24 11
35 25 2
35 27 8
35 29 13
35 30 10
35 31 9
35 32 12
36 1 2
36 2 8
36 4 9
36 6 8
36 12 7
36 14 1
36 19 11
36 24 4
36 25 3
36 26 12
36 27 3
36 29 7
36 30 5
36 32 1
36 33 14
36 34 8
36 35 7
37 3 8
37 6 13
37 7 14
37 8 9
37 12 14
37 13 5
37 15 4
37 21 1
37 28 10
37 29 8
37 31 11
37 32 8
37 34 13
37 35 3
38 0 5
38 3 13
38 5 6
38 6 4
38 9 1
38 10 8
38 12 10
38 17 5
38 22 5
38 23 8
38 24 11
38 25 12
38 26 12
38 27 7
38 29 4
38 37 8
39 0 4
39 1 8
39 3 13
39 4 3
39 7 3
39 10 3
39 14 3
39 16 5
39 21 1
39 22 8
39 30 6
39 32 8
39 38 7
40 1 11
40 3 10
40 6 9
40 7 6
40 8 2
40 12 3
40 13 13
40 14 3
40 18 12
40 19 6
40 24 9
40 25 1
40 26 7
40 29 7
40 30 12
40 32 14
40 35 8
40 36 12
41 0 11
41 1 14
41 2 11
41 6 6
41 8 2
41 11 1
41 12 1
41 13 1
41 14 12
41 15 14
41 16 4
41 18 9
41 19 11
41 23 10
41 24 6
41 25 5
41 28 7
41 29 10
41 31 7
41 35 3
41 38 10
42 0 3
42 3 7
42 4 10
42 5 7
42 6 11
42 7 8
42 9 4
42 10 11
42 18 1
42 20 12
42 25 4
42 26 4
42 27 8
42 28 8
42 29 12
42 30 7
42 32 12
42 33 10
42 35 10
42 38 12
42 39 3
43 3 14
43 6 1
43 7 11
43 8 4
43 15 10
43 16 7
43 17 12
43 18 1
43 19 4
43 20 8
43 21 7
43 23 13
43 25 4
43 28 8
43 31 11
43 34 9
43 38 4
43 39 8
43 41 7
43 42 14
44 0 6
44 1 8
44 5 10
44 6 5
44 7 2
44 8 13
44 9 10
44 12 2
44 13 2
44 14 11
44 15 13
44 16 7
44 18 9
44 19 12
44 21 1
44 24 1
44 25 7
44 26 7
44 27 10
44 29 13
44 30 14
44 31 13
44 32 12
44 34 1
44 38 5
44 39 13
44 43 1
45 0 3
45 2 12
45 3 6
45 7 3
45 8 8
45 9 5
45 10 3
45 14 5
45 15 11
45 16 1
45 17 3
45 18 5
45 25 5
45 26 5
45 28 4
45 30 13
45 32 9
45 35 1
45 36 10
45 37 3
45 40 8
45 42 10
45 44 10
46 0 9
46 1 9
46 3 7
46 4 13
46 6 8
46 8 8
46 10 13
46 12 11
46 17 2
46 18 7
46 20 7
46 21 3
46 23 11
46 26 2
46 32 7
46 33 9
46 38 11
46 39 11
46 40 6
46 41 5
46 42 3
47 0 7
47 1 6
47 5 14
47 6 7
47 7 2
47 8 12
47 9 1
47 10 9
47 14 4
47 16 1
47 17 11
47 18 10
47 20 6
47 21 13
47 22 1
47 23 10
47 26 11
47 27 4
47 28 1
47 33 14
47 36 5
47 37 8
47 39 3
47 40 3
47 43 2
47 44 9
47 45 8
47 46 5
48 0 2
48 2 2
48 4 12
48 6 7
48 7 11
48 9 12
48 12 5
48 13 9
48 15 12
48 21 12
48 23 5
48 25 9
48 27 5
48 28 13
48 29 4
48 31 9
48 32 10
48 33 12
48 34 2
48 37 8
48 38 4
48 39 11
48 40 5
48 42 3
48 43 9
48 45 3
48 46 5
48 47 2
49 0 11
49 2 13
49 3 11
49 6 2
49 7 3
49 9 11
49 10 8
49 12 11
49 13 12
49 16 11
49 18 9
49 19 14
49 21 10
49 24 3
49 26 5
49 27 14
49 28 5
49 29 10
49 31 6
49 36 8
49 37 10
49 43 9
49 45 4
49 47 9
50 2 4
50 3 13
50 4 5
50 6 10
50 7 4
50 9 12
50 13 9
50 14 13
50 15 11
50 16 3
50 17 3
50 18 9
50 19 6
50 21 10
50 23 11
50 32 7
50 33 13
50 36 5
50 39 12
50 40 7
50 45 1
50 49 11
51 2 6
51 6 13
51 7 6
51 9 4
51 11 3
51 14 13
51 15 6
51 18 7
51 20 13
51 21 10
51 24 12
51 25 12
51 27 10
51 28 14
51 30 9
51 32 5
51 33 1
51 34 8
51 35 9
51 38 7
51 41 1
51 43 14
51 47 6
51 48 9
51 49 3
51 50 5
52 1 2
52 3 13
52 4 8
52 5 11
52 6 3
52 7 9
52 14 9
52 15 14
52 17 2
52 20 12
52 23 11
52 25 7
52 27 14
52 29 1
52 31 2
52 32 3
52 34 10
52 35 12
52 36 12
52 38 11
52 40 5
52 41 4
52 42 13
52 44 2
52 47 2
53 0 2
53 1 4
53 2 7
53 3 8
53 7 4
53 8 1
53 9 2
53 11 9
53 13 3
53 14 5
53 15 8
53 16 11
53 18 6
53 19 2
53 20 7
53 21 3
53 23 11
53 24 3
53 26 12
53 28 9
53 29 7
53 31 10
53 36 4
53 37 2
53 40 13
53 42 4
53 50 7
53 51 6
53 52 8
54 1 14
54 4 7
54 6 8
54 7 4
54 8 8
54 9 8
54 11 10
54 14 2
54 15 5
54 16 9
54 17 4
54 22 14
54 23 3
54 24 1
54 25 7
54 26 3
54 27 8
54 30 12
54 31 11
54 33 1
54 35 8
54 36 5
54 38 7
54 39 5
54 41 1
54 48 4
54 49 2
54 50 11
54 51 10
54 52 11
54 53 14
55 1 11
55 2 10
55 3 14
55 4 8
55 5 12
55 6 7
55 9 5
55 13 13
55 14 1
55 16 13
55 17 1
55 19 14
55 20 8
55 22 7
55 24 1
55 25 4
55 27 8
55 28 14
55 30 10
55 31 5
55 32 7
55 33 3
55 42 13
55 47 11
55 53 3
55 54 12
56 5 2
56 7 4
56 9 10
56 11 12
56 13 5
56 14 10
56 16 7
56 17 14
56 18 13
56 19 12
56 22 6
56 25 1
56 26 10
56 27 1
56 28 11
56 29 3
56 31 4
56 32 13
56 35 14
56 36 1
56 42 8
56 44 12
56 45 2
56 46 14
56 48 4
56 53 8
56 55 7
57 0 6
57 1 7
57 3 1
57 4 8
57 5 14
57 10 9
57 12 10
57 16 13
57 19 6
57 20 6
57 21 2
57 22 13
57 23 8
57 24 5
57 26 6
57 27 7
57 31 14
57 35 10
57 36 1
57 40 10
57 44 5
57 47 12
57 48 13
57 49 5
57 50 4
57 52 6
57 53 6
57 54 11
57 56 8
58 0 10
58 2 3
58 5 14
58 7 11
58 9 2
58 11 4
58 14 11
58 15 10
58 16 14
58 18 11
58 19 5
58 20 12
58 24 14
58 26 8
58 27 8
58 28 8
58 29 7
58 31 14
58 34 4
58 35 7
58 36 7
58 39 1
58 41 3
58 42 12
58 46 9
58 49 5
58 51 14
58 53 14
58 54 13
58 57 11
59 2 14
59 3 7
59 5 5
59 6 8
59 7 11
59 8 1
59 9 2
59 15 2
59 16 11
59 20 5
59 21 4
59 24 9
59 25 10
59 26 7
59 36 14
59 43 6
59 45 10
59 46 8
59 47 9
59 48 7
59 49 12
59 50 6
59 51 8
59 52 2
59 53 13
59 54 11
59 55 1
59 58 14
